************************************************************************
file with basedata            : md377_.bas
initial value random generator: 1892808556
************************************************************************
projects                      :  1
jobs (incl. supersource/sink ):  22
horizon                       :  162
RESOURCES
  - renewable                 :  2   R
  - nonrenewable              :  2   N
  - doubly constrained        :  0   D
************************************************************************
PROJECT INFORMATION:
pronr.  #jobs rel.date duedate tardcost  MPM-Time
    1     20      0       23       16       23
************************************************************************
PRECEDENCE RELATIONS:
jobnr.    #modes  #successors   successors
   1        1          3           2   3   4
   2        3          2           5   7
   3        3          3          10  12  17
   4        3          3           5   6  13
   5        3          3          10  12  15
   6        3          3           8  14  19
   7        3          2           9  11
   8        3          3           9  10  15
   9        3          1          16
  10        3          1          16
  11        3          1          12
  12        3          1          18
  13        3          2          14  18
  14        3          2          15  16
  15        3          1          20
  16        3          2          20  21
  17        3          2          18  20
  18        3          2          19  21
  19        3          1          22
  20        3          1          22
  21        3          1          22
  22        1          0        
************************************************************************
REQUESTS/DURATIONS:
jobnr. mode duration  R 1  R 2  N 1  N 2
------------------------------------------------------------------------
  1      1     0       0    0    0    0
  2      1     1       9    0   10   10
         2     5       0    7   10    7
         3     7       9    0   10    7
  3      1     2       7    0    8    9
         2     7       0    4    7    8
         3     9       6    0    6    5
  4      1     1       0    9    5    5
         2     6       2    0    4    5
         3     8       0    4    3    4
  5      1     1       6    0    7    4
         2     5       5    0    6    3
         3    10       0    5    6    3
  6      1     1       0    5    3    5
         2     2       0    3    2    4
         3     7       4    0    2    1
  7      1     6       9    0    7    7
         2     8       9    0    6    7
         3    10       7    0    2    6
  8      1     7       4    0    4    9
         2     9       4    0    3    6
         3    10       0    4    3    3
  9      1     2       0    7    7    3
         2     6       0    6    6    3
         3     7       4    0    5    1
 10      1     4       7    0    8    7
         2     5       0   10    7    6
         3     8       7    0    6    4
 11      1     2       0    3    3    8
         2     2       0    1    4    7
         3     7       4    0    3    7
 12      1     4       6    0    7    7
         2     6       1    0    5    6
         3     6       0    2    7    6
 13      1     3       2    0    7    7
         2     5       2    0    4    4
         3     5       2    0    1    7
 14      1     3       8    0    4    7
         2     6       0    4    3    5
         3     6       0    3    4    5
 15      1     4       8    0    8    4
         2     4       0    4    8    4
         3     9       8    0    7    2
 16      1     4       0    7   10    7
         2     7       6    0   10    6
         3     9       0    7   10    4
 17      1     4       8    0    8    8
         2     6       0    4    7    5
         3     8       6    0    7    3
 18      1     3       0    9    8    6
         2     5       5    0    6    5
         3     9       0    7    4    1
 19      1     3       0    6    3    3
         2     7       0    5    3    3
         3     9      10    0    3    3
 20      1     6       7    0   10    6
         2     8       0    3   10    5
         3    10       0    1    9    5
 21      1     6       0    8    5    5
         2     8       0    2    1    4
         3     8       3    0    3    4
 22      1     0       0    0    0    0
************************************************************************
RESOURCEAVAILABILITIES:
  R 1  R 2  N 1  N 2
   13    5  133  127
************************************************************************
MAXIMAL LAGS:
from  to  type  delay
    1   12   ES      0
    1    2   ES      0
    2   12   ES      0
    1    3   ES      0
    3   12   ES      0
    1    4   ES      0
    4   12   ES      0
    1    5   ES      0
    5   12   ES      0
    1    6   ES      0
    6   12   ES      0
    1    7   ES      0
    7   12   ES      0
    1    8   ES      0
    8   12   ES      0
    1    9   ES      0
    9   12   ES      0
    1   10   ES      0
   10   12   ES      0
    1   11   ES      0
   11   12   ES      0
    1   12   ES      0
    2    5   SS      5
    2    5   SE      8
    2    5   ES      4
    2    5   EE      2
    2    7   SS     -1
    2    7   SE      4
    2    7   ES      2
    2    7   EE     -2
    3   10   SS    -11
    3   10   SE      6
    3   10   ES      5
    3   10   EE    -11
    3   17   SS      9
    3   17   SE     -8
    3   17   ES    -11
    3   17   EE      3
    4    5   SS     -2
    4    5   SE      9
    4    5   ES     -8
    4    5   EE    -11
    4    6   SS     -4
    4    6   SE      0
    4    6   ES      6
    4    6   EE    -11
    4   13   SS      2
    4   13   SE     -3
    4   13   ES     -6
    4   13   EE      6
    5   10   SS    -12
    5   10   SE      8
   10    5   SE      0
    5   10   ES      0
    5   10   EE     -4
    5   15   SS      5
    5   15   SE     -4
    5   15   ES      3
    5   15   EE      3
    6    8   SS     -6
    6    8   SE      7
    6    8   ES     -7
    6    8   EE    -11
    6   14   SS     -8
    6   14   SE     -3
    6   14   ES      8
    6   14   EE     -4
    6   19   SS     12
    6   19   SE     -4
    6   19   ES    -12
    6   19   EE      9
    7    9   SS      3
    7    9   SE     -5
    7    9   ES      8
    7    9   EE     -9
    7   11   SS      6
    7   11   SE      3
    7   11   ES    -10
    7   11   EE      5
    8    9   SS      8
    8    9   SE      7
    8    9   ES     11
    8    9   EE      9
    8   10   SS    -12
    8   10   SE     -9
    8   10   ES    -10
    8   10   EE     -7
    8   15   SS    -11
    8   15   SE     12
    8   15   ES     -6
    8   15   EE     12
    9   16   SS      0
    9   16   SE      3
    9   16   ES     -7
    9   16   EE      7
   10   16   SS      9
   10   16   SE      8
   10   16   ES    -10
   10   16   EE     11
   12   18   SS      0
   12   18   SE      7
   12   18   ES      8
   12   18   EE     -4
   13   14   SS     -8
   13   14   SE      1
   13   14   ES    -10
   13   14   EE      8
   13   18   SS     12
   13   18   SE      0
   13   18   ES      1
   13   18   EE      9
   14   15   SS      1
   14   15   SE     -4
   14   15   ES      3
   14   15   EE    -10
   14   16   SS    -12
   14   16   SE      3
   14   16   ES     10
   14   16   EE      6
   15   20   SS     -5
   15   20   SE     -1
   15   20   ES     -7
   15   20   EE      2
   16   20   SS     -2
   16   20   SE      1
   16   20   ES     -1
   16   20   EE     -8
   16   21   SS     10
   16   21   SE     10
   16   21   ES    -12
   16   21   EE      5
   17   18   SS     -5
   17   18   SE     -9
   17   18   ES      9
   17   18   EE     12
   17   20   SS     12
   17   20   SE     -6
   17   20   ES    -12
   17   20   EE      8
   18   19   SS    -12
   18   19   SE    -10
   18   19   ES     11
   18   19   EE      0
   18   21   SS    -10
   18   21   SE      8
   18   21   ES      4
   18   21   EE     -5
   19   22   SS     -7
   19   22   SE    -10
   19   22   ES     -2
   19   22   EE     -7
   20   22   SS      6
   20   22   SE    -11
   20   22   ES    -11
   20   22   EE      3
   21   22   SS     -3
   21   22   SE    -10
   21   22   ES     11
   21   22   EE      0
************************************************************************
